(set-logic UFDT)
(declare-datatypes ((nat 0)) (((zero) (s (s0 nat)))))
(declare-fun add (nat nat) nat)
(non-erasing add 2)
(injective add (true true))
(declare-fun leq (nat nat) Bool)
(assert (forall ((y nat)) (= (add zero y) y)))
(assert (forall ((x nat) (y nat)) (= (add (s x) y) (s (add x y)))))
(assert (forall ((y nat)) (leq zero y)))
(assert (forall ((x nat)) (not (leq (s x) zero))))
(assert (forall ((x nat) (y nat)) (= (leq (s x) (s y)) (leq x y))))
(assert (not (forall ((v0 nat) (v1 nat) (v2 nat) (v3 nat) (v4 nat) (v5 nat) (v6 nat)) (= (add (add (s (s v5)) (add (add (add (s v0) (add (s v1) v1)) (s (s v2))) (s v4))) (add (s v6) (s (s v3)))) (add (s (s (s (add (add v4 (add v6 v1)) v1)))) (s (s (add (add (s (s v0)) v2) (s (add (s (s v5)) v3))))))))))
(check-sat)
